(set-logic QF_SLIA)
(set-option :produce-models true)
(declare-const X String)
; ^[^\s]+$
(assert (not (str.in_re X (re.++ (re.+ (re.union (str.to_re " ") (str.to_re "\u{09}") (str.to_re "\u{0a}") (str.to_re "\u{0c}") (str.to_re "\u{0d}"))) (str.to_re "\u{0a}")))))
; \b((J(AN|UN|UL))|FEB|MAR|(A(PR|UG))|MAY|SEP|NOV|DEC|OCT)\s*(0?[1-9]|1[0-9]|2[0-9]|3[0-1])\s*(\,)\s*(200[0-9])\b
(assert (not (str.in_re X (re.++ (re.union (re.++ (str.to_re "J") (re.union (str.to_re "AN") (str.to_re "UN") (str.to_re "UL"))) (str.to_re "FEB") (str.to_re "MAR") (re.++ (str.to_re "A") (re.union (str.to_re "PR") (str.to_re "UG"))) (str.to_re "MAY") (str.to_re "SEP") (str.to_re "NOV") (str.to_re "DEC") (str.to_re "OCT")) (re.* (re.union (str.to_re " ") (str.to_re "\u{09}") (str.to_re "\u{0a}") (str.to_re "\u{0c}") (str.to_re "\u{0d}"))) (re.union (re.++ (re.opt (str.to_re "0")) (re.range "1" "9")) (re.++ (str.to_re "1") (re.range "0" "9")) (re.++ (str.to_re "2") (re.range "0" "9")) (re.++ (str.to_re "3") (re.range "0" "1"))) (re.* (re.union (str.to_re " ") (str.to_re "\u{09}") (str.to_re "\u{0a}") (str.to_re "\u{0c}") (str.to_re "\u{0d}"))) (str.to_re ",") (re.* (re.union (str.to_re " ") (str.to_re "\u{09}") (str.to_re "\u{0a}") (str.to_re "\u{0c}") (str.to_re "\u{0d}"))) (str.to_re "\u{0a}200") (re.range "0" "9")))))
; ^[0-9]{2}[-][0-9]{2}[-][0-9]{2}$
(assert (not (str.in_re X (re.++ ((_ re.loop 2 2) (re.range "0" "9")) (str.to_re "-") ((_ re.loop 2 2) (re.range "0" "9")) (str.to_re "-") ((_ re.loop 2 2) (re.range "0" "9")) (str.to_re "\u{0a}")))))
; ^((Sir|Dr.|Mr.|Mrs.|Ms.|Rev.){1}[ ]?)?([A-Z]{1}[.]{1}([A-Z]{1}[.]{1})?|[A-Z]{1}[a-z]{1,}|[A-Z]{1}[a-z]{1,}[-]{1}[A-Z]{1}[a-z]{1,}|[A-Z]{1}[a-z]{0,}[ ]{1}[A-Z]{1}[a-z]{0,}){1}$
(assert (not (str.in_re X (re.++ (re.opt (re.++ ((_ re.loop 1 1) (re.union (str.to_re "Sir") (re.++ (str.to_re "Dr") re.allchar) (re.++ (str.to_re "Mr") re.allchar) (re.++ (str.to_re "Mrs") re.allchar) (re.++ (str.to_re "Ms") re.allchar) (re.++ (str.to_re "Rev") re.allchar))) (re.opt (str.to_re " ")))) ((_ re.loop 1 1) (re.union (re.++ ((_ re.loop 1 1) (re.range "A" "Z")) ((_ re.loop 1 1) (str.to_re ".")) (re.opt (re.++ ((_ re.loop 1 1) (re.range "A" "Z")) ((_ re.loop 1 1) (str.to_re "."))))) (re.++ ((_ re.loop 1 1) (re.range "A" "Z")) (re.+ (re.range "a" "z"))) (re.++ ((_ re.loop 1 1) (re.range "A" "Z")) (re.+ (re.range "a" "z")) ((_ re.loop 1 1) (str.to_re "-")) ((_ re.loop 1 1) (re.range "A" "Z")) (re.+ (re.range "a" "z"))) (re.++ ((_ re.loop 1 1) (re.range "A" "Z")) (re.* (re.range "a" "z")) ((_ re.loop 1 1) (str.to_re " ")) ((_ re.loop 1 1) (re.range "A" "Z")) (re.* (re.range "a" "z"))))) (str.to_re "\u{0a}")))))
; /\/elections\.php\?([a-z0-9]+\u{3d}\d{1,3}\&){9}[a-z0-9]+\u{3d}\d{1,3}$/U
(assert (str.in_re X (re.++ (str.to_re "//elections.php?") ((_ re.loop 9 9) (re.++ (re.+ (re.union (re.range "a" "z") (re.range "0" "9"))) (str.to_re "=") ((_ re.loop 1 3) (re.range "0" "9")) (str.to_re "&"))) (re.+ (re.union (re.range "a" "z") (re.range "0" "9"))) (str.to_re "=") ((_ re.loop 1 3) (re.range "0" "9")) (str.to_re "/U\u{0a}"))))
(check-sat)
